mixintcount/benchmarks/random_v2l/3_3_3548.smt2
(set-logic QF_LIA)
(set-info :ran/ran2.smt2)
(set-info :smt-lib-version 2.0)
(declare-fun x1 () Int)
(declare-fun x2 () Int)
(declare-fun x3 () Int)
(assert (<= (+ (* (- 3) x1) (* 5 x2) (* (- 10) x3) ) 2458))
(assert (<= (+ (* 2 x1) (* 1 x2) (* 6 x3) ) 1289))
(assert (<= (+ (* 10 x1) (* (- 10) x2) (* (- 5) x3) ) 877))
(assert (<= (+ (* (- 10) x1) (* 8 x2) (* (- 4) x3) ) (- 289)))
(assert (<= (+ (* (- 9) x1) (* 5 x2) (* (- 6) x3) ) 812))
(assert (<= (+ (* 6 x1) (* 0 x2) (* 0 x3) ) (- 3031)))
(assert (<= (+ (* 1 x1) (* 0 x2) (* 0 x3) ) 3548))
(assert (<= (+ (* (- 1) x1) (* 0 x2) (* 0 x3) ) 3548))
(assert (<= (+ (* 0 x1) (* 1 x2) (* 0 x3) ) 3548))
(assert (<= (+ (* 0 x1) (* (- 1) x2) (* 0 x3) ) 3548))
(assert (<= (+ (* 0 x1) (* 0 x2) (* 1 x3) ) 3548))
(assert (<= (+ (* 0 x1) (* 0 x2) (* (- 1) x3) ) 3548))
