mixintcount/benchmarks/random_v2l/3_3_3548.in
12 5
#	x1	x2	x3;		0 = Real; 1 = Integer
	1	1	1
1	-3	5	-10	2458
1	2	1	6	1289
1	10	-10	-5	877
1	-10	8	-4	-289
1	-9	5	-6	812
1	6	0	0	-3031
1	1	0	0	3548
1	-1	0	0	3548
1	0	1	0	3548
1	0	-1	0	3548
1	0	0	1	3548
1	0	0	-1	3548
